\* strong_duality *\
Minimize
OBJ: __dummy
Subject To
_C1: 19 X_('P1',_'M1') + 22 X_('P1',_'M10') + 17 X_('P1',_'M2')
 + 18 X_('P1',_'M3') + 19 X_('P1',_'M4') + 22 X_('P1',_'M5')
 + 16 X_('P1',_'M6') + 17 X_('P1',_'M7') + 15 X_('P1',_'M8')
 + 16 X_('P1',_'M9') + 13 X_('P10',_'M1') + 16 X_('P10',_'M10')
 + 14 X_('P10',_'M2') + 12 X_('P10',_'M3') + 16 X_('P10',_'M4')
 + 18 X_('P10',_'M5') + 17 X_('P10',_'M6') + 14 X_('P10',_'M7')
 + 14 X_('P10',_'M8') + 18 X_('P10',_'M9') + 14 X_('P11',_'M1')
 + 10 X_('P11',_'M10') + 9 X_('P11',_'M2') + 13 X_('P11',_'M3')
 + 13 X_('P11',_'M4') + 10 X_('P11',_'M5') + 12 X_('P11',_'M6')
 + 14 X_('P11',_'M7') + 12 X_('P11',_'M8') + 7 X_('P11',_'M9')
 + 29 X_('P12',_'M1') + 26 X_('P12',_'M10') + 30 X_('P12',_'M2')
 + 32 X_('P12',_'M3') + 23 X_('P12',_'M4') + 28 X_('P12',_'M5')
 + 28 X_('P12',_'M6') + 27 X_('P12',_'M7') + 26 X_('P12',_'M8')
 + 26 X_('P12',_'M9') + 34 X_('P13',_'M1') + 32 X_('P13',_'M10')
 + 32 X_('P13',_'M2') + 31 X_('P13',_'M3') + 35 X_('P13',_'M4')
 + 33 X_('P13',_'M5') + 27 X_('P13',_'M6') + 27 X_('P13',_'M7')
 + 30 X_('P13',_'M8') + 28 X_('P13',_'M9') + 27 X_('P14',_'M1')
 + 24 X_('P14',_'M10') + 27 X_('P14',_'M2') + 23 X_('P14',_'M3')
 + 20 X_('P14',_'M4') + 28 X_('P14',_'M5') + 22 X_('P14',_'M6')
 + 22 X_('P14',_'M7') + 25 X_('P14',_'M8') + 23 X_('P14',_'M9')
 + 29 X_('P15',_'M1') + 33 X_('P15',_'M10') + 35 X_('P15',_'M2')
 + 33 X_('P15',_'M3') + 32 X_('P15',_'M4') + 29 X_('P15',_'M5')
 + 32 X_('P15',_'M6') + 33 X_('P15',_'M7') + 32 X_('P15',_'M8')
 + 29 X_('P15',_'M9') + 19 X_('P16',_'M1') + 13 X_('P16',_'M10')
 + 17 X_('P16',_'M2') + 21 X_('P16',_'M3') + 17 X_('P16',_'M4')
 + 17 X_('P16',_'M5') + 13 X_('P16',_'M6') + 21 X_('P16',_'M7')
 + 17 X_('P16',_'M8') + 19 X_('P16',_'M9') + 28 X_('P17',_'M1')
 + 26 X_('P17',_'M10') + 25 X_('P17',_'M2') + 26 X_('P17',_'M3')
 + 24 X_('P17',_'M4') + 28 X_('P17',_'M5') + 29 X_('P17',_'M6')
 + 31 X_('P17',_'M7') + 23 X_('P17',_'M8') + 24 X_('P17',_'M9')
 + 23 X_('P18',_'M1') + 26 X_('P18',_'M10') + 27 X_('P18',_'M2')
 + 22 X_('P18',_'M3') + 23 X_('P18',_'M4') + 24 X_('P18',_'M5')
 + 21 X_('P18',_'M6') + 24 X_('P18',_'M7') + 23 X_('P18',_'M8')
 + 24 X_('P18',_'M9') + 24 X_('P19',_'M1') + 29 X_('P19',_'M10')
 + 24 X_('P19',_'M2') + 23 X_('P19',_'M3') + 22 X_('P19',_'M4')
 + 23 X_('P19',_'M5') + 28 X_('P19',_'M6') + 28 X_('P19',_'M7')
 + 22 X_('P19',_'M8') + 29 X_('P19',_'M9') + 17 X_('P2',_'M1')
 + 11 X_('P2',_'M10') + 17 X_('P2',_'M2') + 9 X_('P2',_'M3')
 + 18 X_('P2',_'M4') + 10 X_('P2',_'M5') + 12 X_('P2',_'M6')
 + 13 X_('P2',_'M7') + 15 X_('P2',_'M8') + 10 X_('P2',_'M9')
 + 21 X_('P20',_'M1') + 21 X_('P20',_'M10') + 25 X_('P20',_'M2')
 + 24 X_('P20',_'M3') + 18 X_('P20',_'M4') + 19 X_('P20',_'M5')
 + 22 X_('P20',_'M6') + 19 X_('P20',_'M7') + 25 X_('P20',_'M8')
 + 18 X_('P20',_'M9') + 30 X_('P3',_'M1') + 29 X_('P3',_'M10')
 + 34 X_('P3',_'M2') + 36 X_('P3',_'M3') + 30 X_('P3',_'M4')
 + 29 X_('P3',_'M5') + 37 X_('P3',_'M6') + 33 X_('P3',_'M7')
 + 34 X_('P3',_'M8') + 31 X_('P3',_'M9') + 31 X_('P4',_'M1')
 + 34 X_('P4',_'M10') + 34 X_('P4',_'M2') + 36 X_('P4',_'M3')
 + 36 X_('P4',_'M4') + 29 X_('P4',_'M5') + 31 X_('P4',_'M6')
 + 32 X_('P4',_'M7') + 36 X_('P4',_'M8') + 33 X_('P4',_'M9')
 + 27 X_('P5',_'M1') + 21 X_('P5',_'M10') + 21 X_('P5',_'M2')
 + 25 X_('P5',_'M3') + 22 X_('P5',_'M4') + 21 X_('P5',_'M5')
 + 22 X_('P5',_'M6') + 22 X_('P5',_'M7') + 29 X_('P5',_'M8')
 + 26 X_('P5',_'M9') + 15 X_('P6',_'M1') + 9 X_('P6',_'M10')
 + 17 X_('P6',_'M2') + 17 X_('P6',_'M3') + 17 X_('P6',_'M4')
 + 12 X_('P6',_'M5') + 9 X_('P6',_'M6') + 13 X_('P6',_'M7')
 + 12 X_('P6',_'M8') + 11 X_('P6',_'M9') + 6 X_('P7',_'M1')
 + 10 X_('P7',_'M10') + 12 X_('P7',_'M2') + 14 X_('P7',_'M3')
 + 15 X_('P7',_'M4') + 11 X_('P7',_'M5') + 14 X_('P7',_'M6')
 + 12 X_('P7',_'M7') + 6 X_('P7',_'M8') + 14 X_('P7',_'M9')
 + 26 X_('P8',_'M1') + 24 X_('P8',_'M10') + 23 X_('P8',_'M2')
 + 24 X_('P8',_'M3') + 26 X_('P8',_'M4') + 20 X_('P8',_'M5')
 + 21 X_('P8',_'M6') + 27 X_('P8',_'M7') + 26 X_('P8',_'M8')
 + 28 X_('P8',_'M9') + 35 X_('P9',_'M1') + 33 X_('P9',_'M10')
 + 33 X_('P9',_'M2') + 31 X_('P9',_'M3') + 30 X_('P9',_'M4')
 + 35 X_('P9',_'M5') + 33 X_('P9',_'M6') + 35 X_('P9',_'M7')
 + 30 X_('P9',_'M8') + 36 X_('P9',_'M9') - 38 dual_0 - 129 dual_1 - 80 dual_10
 - 9 dual_11 - 22 dual_12 - 69 dual_13 - 5 dual_14 - 81 dual_15 - 37 dual_16
 - 18 dual_17 - 53 dual_18 - 2 dual_19 - 104 dual_2 - 56 dual_20 - 90 dual_21
 - 67 dual_22 - 45 dual_23 - 56 dual_24 - 49 dual_25 - dual_26 - 96 dual_27
 - 83 dual_28 - 26 dual_29 - 75 dual_3 - 126 dual_4 - 90 dual_5 - 105 dual_6
 - 91 dual_7 - 47 dual_8 - 61 dual_9 = 0
capacity_P10_: X_('P10',_'M1') + X_('P10',_'M10') + X_('P10',_'M2')
 + X_('P10',_'M3') + X_('P10',_'M4') + X_('P10',_'M5') + X_('P10',_'M6')
 + X_('P10',_'M7') + X_('P10',_'M8') + X_('P10',_'M9') <= 2
capacity_P11_: X_('P11',_'M1') + X_('P11',_'M10') + X_('P11',_'M2')
 + X_('P11',_'M3') + X_('P11',_'M4') + X_('P11',_'M5') + X_('P11',_'M6')
 + X_('P11',_'M7') + X_('P11',_'M8') + X_('P11',_'M9') <= 56
capacity_P12_: X_('P12',_'M1') + X_('P12',_'M10') + X_('P12',_'M2')
 + X_('P12',_'M3') + X_('P12',_'M4') + X_('P12',_'M5') + X_('P12',_'M6')
 + X_('P12',_'M7') + X_('P12',_'M8') + X_('P12',_'M9') <= 90
capacity_P13_: X_('P13',_'M1') + X_('P13',_'M10') + X_('P13',_'M2')
 + X_('P13',_'M3') + X_('P13',_'M4') + X_('P13',_'M5') + X_('P13',_'M6')
 + X_('P13',_'M7') + X_('P13',_'M8') + X_('P13',_'M9') <= 67
capacity_P14_: X_('P14',_'M1') + X_('P14',_'M10') + X_('P14',_'M2')
 + X_('P14',_'M3') + X_('P14',_'M4') + X_('P14',_'M5') + X_('P14',_'M6')
 + X_('P14',_'M7') + X_('P14',_'M8') + X_('P14',_'M9') <= 45
capacity_P15_: X_('P15',_'M1') + X_('P15',_'M10') + X_('P15',_'M2')
 + X_('P15',_'M3') + X_('P15',_'M4') + X_('P15',_'M5') + X_('P15',_'M6')
 + X_('P15',_'M7') + X_('P15',_'M8') + X_('P15',_'M9') <= 56
capacity_P16_: X_('P16',_'M1') + X_('P16',_'M10') + X_('P16',_'M2')
 + X_('P16',_'M3') + X_('P16',_'M4') + X_('P16',_'M5') + X_('P16',_'M6')
 + X_('P16',_'M7') + X_('P16',_'M8') + X_('P16',_'M9') <= 49
capacity_P17_: X_('P17',_'M1') + X_('P17',_'M10') + X_('P17',_'M2')
 + X_('P17',_'M3') + X_('P17',_'M4') + X_('P17',_'M5') + X_('P17',_'M6')
 + X_('P17',_'M7') + X_('P17',_'M8') + X_('P17',_'M9') <= 1
capacity_P18_: X_('P18',_'M1') + X_('P18',_'M10') + X_('P18',_'M2')
 + X_('P18',_'M3') + X_('P18',_'M4') + X_('P18',_'M5') + X_('P18',_'M6')
 + X_('P18',_'M7') + X_('P18',_'M8') + X_('P18',_'M9') <= 96
capacity_P19_: X_('P19',_'M1') + X_('P19',_'M10') + X_('P19',_'M2')
 + X_('P19',_'M3') + X_('P19',_'M4') + X_('P19',_'M5') + X_('P19',_'M6')
 + X_('P19',_'M7') + X_('P19',_'M8') + X_('P19',_'M9') <= 83
capacity_P1_: X_('P1',_'M1') + X_('P1',_'M10') + X_('P1',_'M2')
 + X_('P1',_'M3') + X_('P1',_'M4') + X_('P1',_'M5') + X_('P1',_'M6')
 + X_('P1',_'M7') + X_('P1',_'M8') + X_('P1',_'M9') <= 80
capacity_P20_: X_('P20',_'M1') + X_('P20',_'M10') + X_('P20',_'M2')
 + X_('P20',_'M3') + X_('P20',_'M4') + X_('P20',_'M5') + X_('P20',_'M6')
 + X_('P20',_'M7') + X_('P20',_'M8') + X_('P20',_'M9') <= 26
capacity_P2_: X_('P2',_'M1') + X_('P2',_'M10') + X_('P2',_'M2')
 + X_('P2',_'M3') + X_('P2',_'M4') + X_('P2',_'M5') + X_('P2',_'M6')
 + X_('P2',_'M7') + X_('P2',_'M8') + X_('P2',_'M9') <= 9
capacity_P3_: X_('P3',_'M1') + X_('P3',_'M10') + X_('P3',_'M2')
 + X_('P3',_'M3') + X_('P3',_'M4') + X_('P3',_'M5') + X_('P3',_'M6')
 + X_('P3',_'M7') + X_('P3',_'M8') + X_('P3',_'M9') <= 22
capacity_P4_: X_('P4',_'M1') + X_('P4',_'M10') + X_('P4',_'M2')
 + X_('P4',_'M3') + X_('P4',_'M4') + X_('P4',_'M5') + X_('P4',_'M6')
 + X_('P4',_'M7') + X_('P4',_'M8') + X_('P4',_'M9') <= 69
capacity_P5_: X_('P5',_'M1') + X_('P5',_'M10') + X_('P5',_'M2')
 + X_('P5',_'M3') + X_('P5',_'M4') + X_('P5',_'M5') + X_('P5',_'M6')
 + X_('P5',_'M7') + X_('P5',_'M8') + X_('P5',_'M9') <= 5
capacity_P6_: X_('P6',_'M1') + X_('P6',_'M10') + X_('P6',_'M2')
 + X_('P6',_'M3') + X_('P6',_'M4') + X_('P6',_'M5') + X_('P6',_'M6')
 + X_('P6',_'M7') + X_('P6',_'M8') + X_('P6',_'M9') <= 81
capacity_P7_: X_('P7',_'M1') + X_('P7',_'M10') + X_('P7',_'M2')
 + X_('P7',_'M3') + X_('P7',_'M4') + X_('P7',_'M5') + X_('P7',_'M6')
 + X_('P7',_'M7') + X_('P7',_'M8') + X_('P7',_'M9') <= 37
capacity_P8_: X_('P8',_'M1') + X_('P8',_'M10') + X_('P8',_'M2')
 + X_('P8',_'M3') + X_('P8',_'M4') + X_('P8',_'M5') + X_('P8',_'M6')
 + X_('P8',_'M7') + X_('P8',_'M8') + X_('P8',_'M9') <= 18
capacity_P9_: X_('P9',_'M1') + X_('P9',_'M10') + X_('P9',_'M2')
 + X_('P9',_'M3') + X_('P9',_'M4') + X_('P9',_'M5') + X_('P9',_'M6')
 + X_('P9',_'M7') + X_('P9',_'M8') + X_('P9',_'M9') <= 53
constraint__0__: dual_0 + dual_10 <= 19
constraint__100__: dual_0 + dual_20 <= 14
constraint__101__: dual_1 + dual_20 <= 9
constraint__102__: dual_2 + dual_20 <= 13
constraint__103__: dual_20 + dual_3 <= 13
constraint__104__: dual_20 + dual_4 <= 10
constraint__105__: dual_20 + dual_5 <= 12
constraint__106__: dual_20 + dual_6 <= 14
constraint__107__: dual_20 + dual_7 <= 12
constraint__108__: dual_20 + dual_8 <= 7
constraint__109__: dual_20 + dual_9 <= 10
constraint__10__: dual_0 + dual_11 <= 17
constraint__110__: dual_0 + dual_21 <= 29
constraint__111__: dual_1 + dual_21 <= 30
constraint__112__: dual_2 + dual_21 <= 32
constraint__113__: dual_21 + dual_3 <= 23
constraint__114__: dual_21 + dual_4 <= 28
constraint__115__: dual_21 + dual_5 <= 28
constraint__116__: dual_21 + dual_6 <= 27
constraint__117__: dual_21 + dual_7 <= 26
constraint__118__: dual_21 + dual_8 <= 26
constraint__119__: dual_21 + dual_9 <= 26
constraint__11__: dual_1 + dual_11 <= 17
constraint__120__: dual_0 + dual_22 <= 34
constraint__121__: dual_1 + dual_22 <= 32
constraint__122__: dual_2 + dual_22 <= 31
constraint__123__: dual_22 + dual_3 <= 35
constraint__124__: dual_22 + dual_4 <= 33
constraint__125__: dual_22 + dual_5 <= 27
constraint__126__: dual_22 + dual_6 <= 27
constraint__127__: dual_22 + dual_7 <= 30
constraint__128__: dual_22 + dual_8 <= 28
constraint__129__: dual_22 + dual_9 <= 32
constraint__12__: dual_11 + dual_2 <= 9
constraint__130__: dual_0 + dual_23 <= 27
constraint__131__: dual_1 + dual_23 <= 27
constraint__132__: dual_2 + dual_23 <= 23
constraint__133__: dual_23 + dual_3 <= 20
constraint__134__: dual_23 + dual_4 <= 28
constraint__135__: dual_23 + dual_5 <= 22
constraint__136__: dual_23 + dual_6 <= 22
constraint__137__: dual_23 + dual_7 <= 25
constraint__138__: dual_23 + dual_8 <= 23
constraint__139__: dual_23 + dual_9 <= 24
constraint__13__: dual_11 + dual_3 <= 18
constraint__140__: dual_0 + dual_24 <= 29
constraint__141__: dual_1 + dual_24 <= 35
constraint__142__: dual_2 + dual_24 <= 33
constraint__143__: dual_24 + dual_3 <= 32
constraint__144__: dual_24 + dual_4 <= 29
constraint__145__: dual_24 + dual_5 <= 32
constraint__146__: dual_24 + dual_6 <= 33
constraint__147__: dual_24 + dual_7 <= 32
constraint__148__: dual_24 + dual_8 <= 29
constraint__149__: dual_24 + dual_9 <= 33
constraint__14__: dual_11 + dual_4 <= 10
constraint__150__: dual_0 + dual_25 <= 19
constraint__151__: dual_1 + dual_25 <= 17
constraint__152__: dual_2 + dual_25 <= 21
constraint__153__: dual_25 + dual_3 <= 17
constraint__154__: dual_25 + dual_4 <= 17
constraint__155__: dual_25 + dual_5 <= 13
constraint__156__: dual_25 + dual_6 <= 21
constraint__157__: dual_25 + dual_7 <= 17
constraint__158__: dual_25 + dual_8 <= 19
constraint__159__: dual_25 + dual_9 <= 13
constraint__15__: dual_11 + dual_5 <= 12
constraint__160__: dual_0 + dual_26 <= 28
constraint__161__: dual_1 + dual_26 <= 25
constraint__162__: dual_2 + dual_26 <= 26
constraint__163__: dual_26 + dual_3 <= 24
constraint__164__: dual_26 + dual_4 <= 28
constraint__165__: dual_26 + dual_5 <= 29
constraint__166__: dual_26 + dual_6 <= 31
constraint__167__: dual_26 + dual_7 <= 23
constraint__168__: dual_26 + dual_8 <= 24
constraint__169__: dual_26 + dual_9 <= 26
constraint__16__: dual_11 + dual_6 <= 13
constraint__170__: dual_0 + dual_27 <= 23
constraint__171__: dual_1 + dual_27 <= 27
constraint__172__: dual_2 + dual_27 <= 22
constraint__173__: dual_27 + dual_3 <= 23
constraint__174__: dual_27 + dual_4 <= 24
constraint__175__: dual_27 + dual_5 <= 21
constraint__176__: dual_27 + dual_6 <= 24
constraint__177__: dual_27 + dual_7 <= 23
constraint__178__: dual_27 + dual_8 <= 24
constraint__179__: dual_27 + dual_9 <= 26
constraint__17__: dual_11 + dual_7 <= 15
constraint__180__: dual_0 + dual_28 <= 24
constraint__181__: dual_1 + dual_28 <= 24
constraint__182__: dual_2 + dual_28 <= 23
constraint__183__: dual_28 + dual_3 <= 22
constraint__184__: dual_28 + dual_4 <= 23
constraint__185__: dual_28 + dual_5 <= 28
constraint__186__: dual_28 + dual_6 <= 28
constraint__187__: dual_28 + dual_7 <= 22
constraint__188__: dual_28 + dual_8 <= 29
constraint__189__: dual_28 + dual_9 <= 29
constraint__18__: dual_11 + dual_8 <= 10
constraint__190__: dual_0 + dual_29 <= 21
constraint__191__: dual_1 + dual_29 <= 25
constraint__192__: dual_2 + dual_29 <= 24
constraint__193__: dual_29 + dual_3 <= 18
constraint__194__: dual_29 + dual_4 <= 19
constraint__195__: dual_29 + dual_5 <= 22
constraint__196__: dual_29 + dual_6 <= 19
constraint__197__: dual_29 + dual_7 <= 25
constraint__198__: dual_29 + dual_8 <= 18
constraint__199__: dual_29 + dual_9 <= 21
constraint__19__: dual_11 + dual_9 <= 11
constraint__1__: dual_1 + dual_10 <= 17
constraint__200__: - dual_0 <= 0
constraint__201__: - dual_1 <= 0
constraint__202__: - dual_2 <= 0
constraint__203__: - dual_3 <= 0
constraint__204__: - dual_4 <= 0
constraint__205__: - dual_5 <= 0
constraint__206__: - dual_6 <= 0
constraint__207__: - dual_7 <= 0
constraint__208__: - dual_8 <= 0
constraint__209__: - dual_9 <= 0
constraint__20__: dual_0 + dual_12 <= 30
constraint__210__: dual_10 <= 0
constraint__211__: dual_11 <= 0
constraint__212__: dual_12 <= 0
constraint__213__: dual_13 <= 0
constraint__214__: dual_14 <= 0
constraint__215__: dual_15 <= 0
constraint__216__: dual_16 <= 0
constraint__217__: dual_17 <= 0
constraint__218__: dual_18 <= 0
constraint__219__: dual_19 <= 0
constraint__21__: dual_1 + dual_12 <= 34
constraint__220__: dual_20 <= 0
constraint__221__: dual_21 <= 0
constraint__222__: dual_22 <= 0
constraint__223__: dual_23 <= 0
constraint__224__: dual_24 <= 0
constraint__225__: dual_25 <= 0
constraint__226__: dual_26 <= 0
constraint__227__: dual_27 <= 0
constraint__228__: dual_28 <= 0
constraint__229__: dual_29 <= 0
constraint__22__: dual_12 + dual_2 <= 36
constraint__23__: dual_12 + dual_3 <= 30
constraint__24__: dual_12 + dual_4 <= 29
constraint__25__: dual_12 + dual_5 <= 37
constraint__26__: dual_12 + dual_6 <= 33
constraint__27__: dual_12 + dual_7 <= 34
constraint__28__: dual_12 + dual_8 <= 31
constraint__29__: dual_12 + dual_9 <= 29
constraint__2__: dual_10 + dual_2 <= 18
constraint__30__: dual_0 + dual_13 <= 31
constraint__31__: dual_1 + dual_13 <= 34
constraint__32__: dual_13 + dual_2 <= 36
constraint__33__: dual_13 + dual_3 <= 36
constraint__34__: dual_13 + dual_4 <= 29
constraint__35__: dual_13 + dual_5 <= 31
constraint__36__: dual_13 + dual_6 <= 32
constraint__37__: dual_13 + dual_7 <= 36
constraint__38__: dual_13 + dual_8 <= 33
constraint__39__: dual_13 + dual_9 <= 34
constraint__3__: dual_10 + dual_3 <= 19
constraint__40__: dual_0 + dual_14 <= 27
constraint__41__: dual_1 + dual_14 <= 21
constraint__42__: dual_14 + dual_2 <= 25
constraint__43__: dual_14 + dual_3 <= 22
constraint__44__: dual_14 + dual_4 <= 21
constraint__45__: dual_14 + dual_5 <= 22
constraint__46__: dual_14 + dual_6 <= 22
constraint__47__: dual_14 + dual_7 <= 29
constraint__48__: dual_14 + dual_8 <= 26
constraint__49__: dual_14 + dual_9 <= 21
constraint__4__: dual_10 + dual_4 <= 22
constraint__50__: dual_0 + dual_15 <= 15
constraint__51__: dual_1 + dual_15 <= 17
constraint__52__: dual_15 + dual_2 <= 17
constraint__53__: dual_15 + dual_3 <= 17
constraint__54__: dual_15 + dual_4 <= 12
constraint__55__: dual_15 + dual_5 <= 9
constraint__56__: dual_15 + dual_6 <= 13
constraint__57__: dual_15 + dual_7 <= 12
constraint__58__: dual_15 + dual_8 <= 11
constraint__59__: dual_15 + dual_9 <= 9
constraint__5__: dual_10 + dual_5 <= 16
constraint__60__: dual_0 + dual_16 <= 6
constraint__61__: dual_1 + dual_16 <= 12
constraint__62__: dual_16 + dual_2 <= 14
constraint__63__: dual_16 + dual_3 <= 15
constraint__64__: dual_16 + dual_4 <= 11
constraint__65__: dual_16 + dual_5 <= 14
constraint__66__: dual_16 + dual_6 <= 12
constraint__67__: dual_16 + dual_7 <= 6
constraint__68__: dual_16 + dual_8 <= 14
constraint__69__: dual_16 + dual_9 <= 10
constraint__6__: dual_10 + dual_6 <= 17
constraint__70__: dual_0 + dual_17 <= 26
constraint__71__: dual_1 + dual_17 <= 23
constraint__72__: dual_17 + dual_2 <= 24
constraint__73__: dual_17 + dual_3 <= 26
constraint__74__: dual_17 + dual_4 <= 20
constraint__75__: dual_17 + dual_5 <= 21
constraint__76__: dual_17 + dual_6 <= 27
constraint__77__: dual_17 + dual_7 <= 26
constraint__78__: dual_17 + dual_8 <= 28
constraint__79__: dual_17 + dual_9 <= 24
constraint__7__: dual_10 + dual_7 <= 15
constraint__80__: dual_0 + dual_18 <= 35
constraint__81__: dual_1 + dual_18 <= 33
constraint__82__: dual_18 + dual_2 <= 31
constraint__83__: dual_18 + dual_3 <= 30
constraint__84__: dual_18 + dual_4 <= 35
constraint__85__: dual_18 + dual_5 <= 33
constraint__86__: dual_18 + dual_6 <= 35
constraint__87__: dual_18 + dual_7 <= 30
constraint__88__: dual_18 + dual_8 <= 36
constraint__89__: dual_18 + dual_9 <= 33
constraint__8__: dual_10 + dual_8 <= 16
constraint__90__: dual_0 + dual_19 <= 13
constraint__91__: dual_1 + dual_19 <= 14
constraint__92__: dual_19 + dual_2 <= 12
constraint__93__: dual_19 + dual_3 <= 16
constraint__94__: dual_19 + dual_4 <= 18
constraint__95__: dual_19 + dual_5 <= 17
constraint__96__: dual_19 + dual_6 <= 14
constraint__97__: dual_19 + dual_7 <= 14
constraint__98__: dual_19 + dual_8 <= 18
constraint__99__: dual_19 + dual_9 <= 16
constraint__9__: dual_10 + dual_9 <= 22
demand_M10_: X_('P1',_'M10') + X_('P10',_'M10') + X_('P11',_'M10')
 + X_('P12',_'M10') + X_('P13',_'M10') + X_('P14',_'M10') + X_('P15',_'M10')
 + X_('P16',_'M10') + X_('P17',_'M10') + X_('P18',_'M10') + X_('P19',_'M10')
 + X_('P2',_'M10') + X_('P20',_'M10') + X_('P3',_'M10') + X_('P4',_'M10')
 + X_('P5',_'M10') + X_('P6',_'M10') + X_('P7',_'M10') + X_('P8',_'M10')
 + X_('P9',_'M10') >= 61
demand_M1_: X_('P1',_'M1') + X_('P10',_'M1') + X_('P11',_'M1')
 + X_('P12',_'M1') + X_('P13',_'M1') + X_('P14',_'M1') + X_('P15',_'M1')
 + X_('P16',_'M1') + X_('P17',_'M1') + X_('P18',_'M1') + X_('P19',_'M1')
 + X_('P2',_'M1') + X_('P20',_'M1') + X_('P3',_'M1') + X_('P4',_'M1')
 + X_('P5',_'M1') + X_('P6',_'M1') + X_('P7',_'M1') + X_('P8',_'M1')
 + X_('P9',_'M1') >= 38
demand_M2_: X_('P1',_'M2') + X_('P10',_'M2') + X_('P11',_'M2')
 + X_('P12',_'M2') + X_('P13',_'M2') + X_('P14',_'M2') + X_('P15',_'M2')
 + X_('P16',_'M2') + X_('P17',_'M2') + X_('P18',_'M2') + X_('P19',_'M2')
 + X_('P2',_'M2') + X_('P20',_'M2') + X_('P3',_'M2') + X_('P4',_'M2')
 + X_('P5',_'M2') + X_('P6',_'M2') + X_('P7',_'M2') + X_('P8',_'M2')
 + X_('P9',_'M2') >= 129
demand_M3_: X_('P1',_'M3') + X_('P10',_'M3') + X_('P11',_'M3')
 + X_('P12',_'M3') + X_('P13',_'M3') + X_('P14',_'M3') + X_('P15',_'M3')
 + X_('P16',_'M3') + X_('P17',_'M3') + X_('P18',_'M3') + X_('P19',_'M3')
 + X_('P2',_'M3') + X_('P20',_'M3') + X_('P3',_'M3') + X_('P4',_'M3')
 + X_('P5',_'M3') + X_('P6',_'M3') + X_('P7',_'M3') + X_('P8',_'M3')
 + X_('P9',_'M3') >= 104
demand_M4_: X_('P1',_'M4') + X_('P10',_'M4') + X_('P11',_'M4')
 + X_('P12',_'M4') + X_('P13',_'M4') + X_('P14',_'M4') + X_('P15',_'M4')
 + X_('P16',_'M4') + X_('P17',_'M4') + X_('P18',_'M4') + X_('P19',_'M4')
 + X_('P2',_'M4') + X_('P20',_'M4') + X_('P3',_'M4') + X_('P4',_'M4')
 + X_('P5',_'M4') + X_('P6',_'M4') + X_('P7',_'M4') + X_('P8',_'M4')
 + X_('P9',_'M4') >= 75
demand_M5_: X_('P1',_'M5') + X_('P10',_'M5') + X_('P11',_'M5')
 + X_('P12',_'M5') + X_('P13',_'M5') + X_('P14',_'M5') + X_('P15',_'M5')
 + X_('P16',_'M5') + X_('P17',_'M5') + X_('P18',_'M5') + X_('P19',_'M5')
 + X_('P2',_'M5') + X_('P20',_'M5') + X_('P3',_'M5') + X_('P4',_'M5')
 + X_('P5',_'M5') + X_('P6',_'M5') + X_('P7',_'M5') + X_('P8',_'M5')
 + X_('P9',_'M5') >= 126
demand_M6_: X_('P1',_'M6') + X_('P10',_'M6') + X_('P11',_'M6')
 + X_('P12',_'M6') + X_('P13',_'M6') + X_('P14',_'M6') + X_('P15',_'M6')
 + X_('P16',_'M6') + X_('P17',_'M6') + X_('P18',_'M6') + X_('P19',_'M6')
 + X_('P2',_'M6') + X_('P20',_'M6') + X_('P3',_'M6') + X_('P4',_'M6')
 + X_('P5',_'M6') + X_('P6',_'M6') + X_('P7',_'M6') + X_('P8',_'M6')
 + X_('P9',_'M6') >= 90
demand_M7_: X_('P1',_'M7') + X_('P10',_'M7') + X_('P11',_'M7')
 + X_('P12',_'M7') + X_('P13',_'M7') + X_('P14',_'M7') + X_('P15',_'M7')
 + X_('P16',_'M7') + X_('P17',_'M7') + X_('P18',_'M7') + X_('P19',_'M7')
 + X_('P2',_'M7') + X_('P20',_'M7') + X_('P3',_'M7') + X_('P4',_'M7')
 + X_('P5',_'M7') + X_('P6',_'M7') + X_('P7',_'M7') + X_('P8',_'M7')
 + X_('P9',_'M7') >= 105
demand_M8_: X_('P1',_'M8') + X_('P10',_'M8') + X_('P11',_'M8')
 + X_('P12',_'M8') + X_('P13',_'M8') + X_('P14',_'M8') + X_('P15',_'M8')
 + X_('P16',_'M8') + X_('P17',_'M8') + X_('P18',_'M8') + X_('P19',_'M8')
 + X_('P2',_'M8') + X_('P20',_'M8') + X_('P3',_'M8') + X_('P4',_'M8')
 + X_('P5',_'M8') + X_('P6',_'M8') + X_('P7',_'M8') + X_('P8',_'M8')
 + X_('P9',_'M8') >= 91
demand_M9_: X_('P1',_'M9') + X_('P10',_'M9') + X_('P11',_'M9')
 + X_('P12',_'M9') + X_('P13',_'M9') + X_('P14',_'M9') + X_('P15',_'M9')
 + X_('P16',_'M9') + X_('P17',_'M9') + X_('P18',_'M9') + X_('P19',_'M9')
 + X_('P2',_'M9') + X_('P20',_'M9') + X_('P3',_'M9') + X_('P4',_'M9')
 + X_('P5',_'M9') + X_('P6',_'M9') + X_('P7',_'M9') + X_('P8',_'M9')
 + X_('P9',_'M9') >= 47
Bounds
 __dummy = 0
 dual_0 free
 dual_1 free
 dual_10 free
 dual_11 free
 dual_12 free
 dual_13 free
 dual_14 free
 dual_15 free
 dual_16 free
 dual_17 free
 dual_18 free
 dual_19 free
 dual_2 free
 dual_20 free
 dual_21 free
 dual_22 free
 dual_23 free
 dual_24 free
 dual_25 free
 dual_26 free
 dual_27 free
 dual_28 free
 dual_29 free
 dual_3 free
 dual_4 free
 dual_5 free
 dual_6 free
 dual_7 free
 dual_8 free
 dual_9 free
End
